% The compatibility matrix 
% (from Pascal's introduction lecture)
% who can give a kidney to person p
% This is a directed graph
num_people = 8;
compatible = 
  [
    {2,3}, % 1
    {1,6}, % 2
    {1,4,7}, % 3
    {2}, % 4  
    {2}, % 5
    {5}, % 6
    {8}, % 7
    {3}, % 8
  ];
